(set-logic LIA)
(synth-fun next ((brake Int) (distance Int) (speed Int) (throttle Int) (ignition Bool) (time Int) ) Int
	((Start Int) (Var Int) (StartBool Bool))
	((Start Int (
				 3
				 6
				 (ite StartBool Start Start)))

	(Var Int (
			 0
			 1
			 2
			 6
			 9
			 20
			 431
			 1227
			 brake
			 distance
			 speed
			 throttle
			 time
			 (+ Var Var)						
			 (- Var Var)						
			 (* Var Var)))

	(StartBool Bool (
				 	 ignition
					(= Var Var)						
					(>= Var Var)						
					(<= Var Var)						
					(and StartBool StartBool)			
					(or  StartBool StartBool)				
					(not StartBool)))))

(constraint (= (next 0 0 17 1 true 815 ) 6))
(constraint (= (next 0 7 30 2 true 1191 ) 3))
(constraint (= (next 0 11 12 1 true 1674 ) 3))

(check-synth)
